
Gurobi 7.0.2 (linux64, Matlab) logging started Sun Sep  2 08:55:40 2018


Gurobi 7.0.2 (linux64) logging started Sun Sep  2 08:55:40 2018

Optimize a model with 129925 rows, 42981 columns and 343466 nonzeros
Coefficient statistics:
  Matrix range     [5e-08, 3e+01]
  Objective range  [1e+05, 1e+05]
  Bounds range     [1e+00, 1e+00]
  RHS range        [1e+00, 3e+01]
Iteration    Objective       Primal Inf.    Dual Inf.      Time
       0    1.4594500e+05   0.000000e+00   0.000000e+00      0s

Solved in 0 iterations and 0.03 seconds
Optimal objective  1.459450000e+05
